unsat
(define-fun skel ((n200 Bool) (n215 Bool) (n209 Bool) (i22 Bool)) Bool (and i22 (not (and n200 (and n215 n209)))))
0.09user 0.01system 0:00.11elapsed 100%CPU (0avgtext+0avgdata 27012maxresident)k
0inputs+8outputs (0major+1540minor)pagefaults 0swaps
